142782
95, 67, 54, 71, 36, 85, 48, 73, 2, 33, 53, 84, 39, 49, 37, 18, 7, 32, 63, 75, 15, 4, 61, 14, 47, 103, 35, 100, 51, 82, 72, 45, 25, 86, 77, 6, 40, 69, 98, 106, 97, 8, 55, 29, 30, 5, 52, 31, 65, 13, 88, 20, 56, 16, 90, 64, 17, 21, 22, 62, 46, 81, 42, 19, 99, 68, 50, 26, 9, 23, 92, 12, 93, 89, 80, 57, 34, 83, 74, 102, 24, 76, 58, 1, 87, 44, 59, 66, 10, 27, 28, 43, 79, 91, 60, 96, 78, 94, 70, 101, 3, 105, 38, 104, 11, 41
